200 200
110 32
12 33
78 15
62 18
16 53
37 76
14 97
28 43
16 9
15 22
64 19
10 13
3 6
7 22
67 16
4 27
12 13
27 14
13 41
78 35
30 115
6 6
72 12
8 54
20 91
19 6
38 48
21 61
10 38
22 47
5 30
5 9
3 15
24 10
18 5
6 11
21 6
20 37
18 13
39 24
62 17
15 92
22 58
22 37
23 19
41 27
20 15
3 8
44 7
